lattice	fcc 0.8442
region box block 0 10 0 10 0 10
create_box 1 box
create_atoms 1 box

pair_style lj/cut 2.5
pair_coeff 1 1 1.0 1.0 2.5
mass 1 1.0

velocity all create 1.0 87287
fix nve all nve
dump dump all atom 1 trajectory.bin
run 1000