lattice	fcc 0.975
region box block 0 60 0 30 0 30
create_box 2 box
create_atoms 1 box

pair_style lj/cut 2.5
pair_coeff 1 1 1.0 1.0 2.5
pair_coeff 2 2 0.5 0.88 2.5
pair_coeff 1 2 0.2 1.0 2.5

mass 1 4.0
mass 2 0.5

# New commands here

run 1000