#/camera position -63.0668 62.4751 33.8401
#/camera viewcenter 35.5396 25.4799 16.796

log log.short
#package gpu 1
#suffix gpu
variable rho equal 0.05

units lj
atom_style atomic

lattice fcc 0.975
region box block 0 60 0 30 0 30
create_box 2 box
create_atoms 1 box
mass 1 4.0
mass 2 0.5


pair_style lj/cut 2.5
pair_coeff 1 1 1.0 1.0 2.5
pair_coeff 2 2 0.5 0.88 2.5
pair_coeff 1 2 0.2 1.0 2.5
#pair_coeff 1 2 1.5 0.8 2.5
pair_modify mix geometric
neigh_modify every 1 delay 0 check yes

variable R equal 12
region cylinder3 cylinder x $(0.5*ly) $(0.5*lz) $(v_R+9) EDGE EDGE units box
region cylinder2 cylinder x $(0.5*ly) $(0.5*lz) $(v_R+6) EDGE EDGE units box
region cylinder1 cylinder x $(0.5*ly) $(0.5*lz) $R EDGE EDGE units box

group cylinder1 region cylinder1
variable V equal PI*v_R*v_R*lx
# variable rho equal 0.1
variable natoms equal $V*${rho}
variable natoms_in_cylinder equal count(cylinder1)
variable delete_fraction equal (${natoms_in_cylinder}-${natoms})/${natoms_in_cylinder}
set group cylinder1 type 2
delete_atoms porosity cylinder1 ${delete_fraction} 12345

group cylinder2 region cylinder2
group cylinder3 region cylinder3

group nve region cylinder3
group langevin subtract cylinder3 cylinder2
group frozen subtract all cylinder3

group inner dynamic all region cylinder1 every 1
#group gas dynamic all region force every 1
group gas type 2


run 1000
